60
1 0 1
2 0 1
2 1 1
3 0 2
3 1 2
3 2 2
4 0 2
4 1 1
4 2 1
4 3 2
5 0 2
5 1 1
5 2 2
5 3 2
5 4 1
6 0 1
6 1 1
6 2 1
6 3 1
6 4 2
6 5 1
7 0 2
7 1 2
7 2 2
7 3 2
7 4 1
7 5 2
7 6 2
8 0 1
8 1 2
8 2 1
8 3 2
8 4 2
8 5 2
8 6 1
8 7 1
9 0 1
9 1 2
9 2 1
9 3 2
9 4 1
9 5 2
9 6 1
9 7 1
9 8 2
10 0 2
10 1 1
10 2 1
10 3 2
10 4 1
10 5 1
10 6 1
10 7 1
10 8 1
10 9 2
11 0 2
11 1 2
11 2 2
11 3 2
11 4 2
11 5 2
11 6 1
11 7 2
11 8 1
11 9 1
11 10 1
12 0 2
12 1 2
12 2 2
12 3 1
12 4 2
12 5 1
12 6 2
12 7 1
12 8 2
12 9 2
12 10 2
12 11 1
13 0 2
13 1 1
13 2 2
13 3 2
13 4 2
13 5 1
13 6 2
13 7 1
13 8 2
13 9 1
13 10 1
13 11 1
13 12 1
14 0 1
14 1 2
14 2 2
14 3 2
14 4 2
14 5 2
14 6 1
14 7 1
14 8 2
14 9 2
14 10 2
14 11 2
14 12 2
14 13 2
15 0 1
15 1 1
15 2 1
15 3 1
15 4 2
15 5 1
15 6 1
15 7 2
15 8 2
15 9 2
15 10 1
15 11 2
15 12 2
15 13 1
15 14 1
16 0 1
16 1 2
16 2 1
16 3 1
16 4 1
16 5 2
16 6 2
16 7 1
16 8 2
16 9 1
16 10 1
16 11 2
16 12 1
16 13 2
16 14 1
16 15 1
17 0 2
17 1 1
17 2 1
17 3 2
17 4 2
17 5 2
17 6 2
17 7 2
17 8 2
17 9 1
17 10 2
17 11 1
17 12 2
17 13 1
17 14 2
17 15 1
17 16 1
18 0 2
18 1 2
18 2 1
18 3 1
18 4 2
18 5 2
18 6 2
18 7 2
18 8 2
18 9 2
18 10 2
18 11 2
18 12 2
18 13 2
18 14 2
18 15 2
18 16 2
18 17 2
19 0 1
19 1 1
19 2 1
19 3 2
19 4 2
19 5 1
19 6 1
19 7 1
19 8 2
19 9 2
19 10 1
19 11 2
19 12 1
19 13 2
19 14 1
19 15 1
19 16 2
19 17 2
19 18 1
20 0 1
20 1 1
20 2 1
20 3 2
20 4 1
20 5 1
20 6 2
20 7 2
20 8 1
20 9 2
20 10 2
20 11 2
20 12 1
20 13 1
20 14 2
20 15 2
20 16 1
20 17 2
20 18 1
20 19 1
21 0 1
21 1 1
21 2 2
21 3 1
21 4 1
21 5 1
21 6 2
21 7 1
21 8 2
21 9 2
21 10 1
21 11 1
21 12 2
21 13 2
21 14 2
21 15 1
21 16 2
21 17 2
21 18 1
21 19 2
21 20 2
22 0 2
22 1 1
22 2 1
22 3 2
22 4 2
22 5 2
22 6 1
22 7 2
22 8 1
22 9 2
22 10 2
22 11 1
22 12 1
22 13 2
22 14 2
22 15 1
22 16 2
22 17 1
22 18 1
22 19 1
22 20 1
22 21 1
23 0 1
23 1 2
23 2 2
23 3 2
23 4 1
23 5 1
23 6 2
23 7 2
23 8 1
23 9 1
23 10 2
23 11 1
23 12 1
23 13 1
23 14 2
23 15 1
23 16 1
23 17 1
23 18 2
23 19 1
23 20 1
23 21 2
23 22 2
24 0 1
24 1 1
24 2 2
24 3 1
24 4 2
24 5 1
24 6 2
24 7 2
24 8 1
24 9 2
24 10 2
24 11 2
24 12 2
24 13 2
24 14 2
24 15 1
24 16 1
24 17 2
24 18 2
24 19 2
24 20 2
24 21 2
24 22 2
24 23 2
25 0 1
25 1 1
25 2 2
25 3 1
25 4 2
25 5 2
25 6 2
25 7 1
25 8 1
25 9 2
25 10 1
25 11 1
25 12 2
25 13 2
25 14 2
25 15 1
25 16 1
25 17 1
25 18 2
25 19 2
25 20 1
25 21 2
25 22 1
25 23 1
25 24 1
26 0 1
26 1 1
26 2 2
26 3 1
26 4 1
26 5 1
26 6 1
26 7 1
26 8 2
26 9 1
26 10 2
26 11 1
26 12 2
26 13 2
26 14 1
26 15 2
26 16 1
26 17 2
26 18 2
26 19 1
26 20 2
26 21 2
26 22 2
26 23 2
26 24 2
26 25 2
27 0 1
27 1 1
27 2 1
27 3 2
27 4 2
27 5 2
27 6 2
27 7 2
27 8 1
27 9 2
27 10 2
27 11 1
27 12 2
27 13 1
27 14 1
27 15 1
27 16 2
27 17 2
27 18 2
27 19 2
27 20 2
27 21 1
27 22 1
27 23 2
27 24 1
27 25 2
27 26 2
28 0 2
28 1 1
28 2 2
28 3 2
28 4 2
28 5 2
28 6 1
28 7 2
28 8 1
28 9 2
28 10 1
28 11 2
28 12 2
28 13 2
28 14 1
28 15 2
28 16 1
28 17 1
28 18 1
28 19 1
28 20 2
28 21 1
28 22 1
28 23 1
28 24 2
28 25 2
28 26 2
28 27 1
29 0 1
29 1 1
29 2 2
29 3 2
29 4 2
29 5 2
29 6 2
29 7 2
29 8 2
29 9 2
29 10 2
29 11 2
29 12 1
29 13 1
29 14 1
29 15 2
29 16 2
29 17 2
29 18 1
29 19 2
29 20 2
29 21 1
29 22 1
29 23 1
29 24 2
29 25 1
29 26 1
29 27 1
29 28 2
30 0 2
30 1 2
30 2 1
30 3 1
30 4 1
30 5 1
30 6 2
30 7 1
30 8 2
30 9 1
30 10 1
30 11 1
30 12 2
30 13 2
30 14 2
30 15 1
30 16 1
30 17 2
30 18 2
30 19 1
30 20 2
30 21 2
30 22 2
30 23 2
30 24 2
30 25 1
30 26 2
30 27 1
30 28 2
30 29 1
31 0 2
31 1 1
31 2 2
31 3 2
31 4 1
31 5 1
31 6 2
31 7 2
31 8 1
31 9 1
31 10 2
31 11 1
31 12 1
31 13 1
31 14 1
31 15 2
31 16 2
31 17 2
31 18 1
31 19 1
31 20 2
31 21 2
31 22 2
31 23 2
31 24 2
31 25 2
31 26 1
31 27 1
31 28 2
31 29 2
31 30 2
32 0 1
32 1 2
32 2 1
32 3 1
32 4 2
32 5 1
32 6 1
32 7 1
32 8 1
32 9 2
32 10 1
32 11 2
32 12 1
32 13 2
32 14 1
32 15 1
32 16 1
32 17 2
32 18 2
32 19 1
32 20 1
32 21 2
32 22 1
32 23 1
32 24 2
32 25 2
32 26 2
32 27 1
32 28 2
32 29 1
32 30 2
32 31 1
33 0 1
33 1 1
33 2 2
33 3 2
33 4 1
33 5 1
33 6 1
33 7 1
33 8 2
33 9 1
33 10 1
33 11 2
33 12 1
33 13 1
33 14 2
33 15 2
33 16 2
33 17 2
33 18 2
33 19 1
33 20 1
33 21 1
33 22 2
33 23 1
33 24 2
33 25 1
33 26 1
33 27 1
33 28 2
33 29 1
33 30 1
33 31 2
33 32 2
34 0 1
34 1 1
34 2 2
34 3 2
34 4 1
34 5 2
34 6 2
34 7 2
34 8 2
34 9 1
34 10 1
34 11 1
34 12 2
34 13 1
34 14 1
34 15 2
34 16 2
34 17 1
34 18 2
34 19 1
34 20 2
34 21 1
34 22 1
34 23 2
34 24 2
34 25 2
34 26 1
34 27 2
34 28 1
34 29 2
34 30 1
34 31 2
34 32 1
34 33 1
35 0 1
35 1 1
35 2 2
35 3 2
35 4 2
35 5 2
35 6 2
35 7 1
35 8 2
35 9 1
35 10 2
35 11 2
35 12 1
35 13 1
35 14 2
35 15 2
35 16 2
35 17 1
35 18 2
35 19 1
35 20 1
35 21 1
35 22 1
35 23 2
35 24 1
35 25 1
35 26 2
35 27 2
35 28 1
35 29 2
35 30 1
35 31 1
35 32 2
35 33 2
35 34 1
36 0 2
36 1 2
36 2 1
36 3 2
36 4 2
36 5 2
36 6 1
36 7 2
36 8 1
36 9 1
36 10 2
36 11 2
36 12 1
36 13 1
36 14 2
36 15 2
36 16 2
36 17 1
36 18 2
36 19 1
36 20 1
36 21 1
36 22 2
36 23 2
36 24 2
36 25 2
36 26 1
36 27 1
36 28 2
36 29 2
36 30 1
36 31 2
36 32 2
36 33 2
36 34 1
36 35 2
37 0 2
37 1 1
37 2 1
37 3 1
37 4 1
37 5 1
37 6 2
37 7 2
37 8 2
37 9 2
37 10 1
37 11 1
37 12 1
37 13 1
37 14 2
37 15 1
37 16 1
37 17 1
37 18 2
37 19 1
37 20 2
37 21 1
37 22 1
37 23 1
37 24 1
37 25 2
37 26 1
37 27 2
37 28 1
37 29 2
37 30 2
37 31 2
37 32 1
37 33 1
37 34 2
37 35 2
37 36 1
38 0 2
38 1 2
38 2 2
38 3 2
38 4 2
38 5 1
38 6 2
38 7 1
38 8 2
38 9 2
38 10 1
38 11 2
38 12 1
38 13 1
38 14 1
38 15 2
38 16 2
38 17 1
38 18 1
38 19 1
38 20 1
38 21 2
38 22 1
38 23 2
38 24 2
38 25 2
38 26 2
38 27 2
38 28 2
38 29 2
38 30 1
38 31 1
38 32 2
38 33 1
38 34 2
38 35 2
38 36 1
38 37 1
39 0 2
39 1 1
39 2 2
39 3 1
39 4 2
39 5 2
39 6 2
39 7 2
39 8 2
39 9 2
39 10 2
39 11 1
39 12 1
39 13 1
39 14 2
39 15 1
39 16 2
39 17 1
39 18 1
39 19 2
39 20 1
39 21 2
39 22 2
39 23 2
39 24 2
39 25 1
39 26 1
39 27 1
39 28 2
39 29 1
39 30 2
39 31 2
39 32 2
39 33 2
39 34 2
39 35 1
39 36 2
39 37 1
39 38 2
40 0 1
40 1 1
40 2 2
40 3 1
40 4 1
40 5 2
40 6 1
40 7 1
40 8 2
40 9 2
40 10 2
40 11 1
40 12 2
40 13 2
40 14 2
40 15 2
40 16 1
40 17 1
40 18 2
40 19 1
40 20 1
40 21 2
40 22 2
40 23 1
40 24 1
40 25 1
40 26 1
40 27 1
40 28 1
40 29 1
40 30 2
40 31 1
40 32 1
40 33 1
40 34 2
40 35 2
40 36 1
40 37 1
40 38 1
40 39 1
41 0 2
41 1 1
41 2 2
41 3 1
41 4 1
41 5 1
41 6 2
41 7 2
41 8 1
41 9 2
41 10 2
41 11 2
41 12 1
41 13 2
41 14 1
41 15 2
41 16 1
41 17 1
41 18 2
41 19 1
41 20 2
41 21 1
41 22 2
41 23 2
41 24 1
41 25 2
41 26 1
41 27 2
41 28 2
41 29 2
41 30 2
41 31 2
41 32 1
41 33 2
41 34 1
41 35 2
41 36 2
41 37 2
41 38 1
41 39 2
41 40 2
42 0 1
42 1 2
42 2 1
42 3 1
42 4 2
42 5 2
42 6 1
42 7 2
42 8 1
42 9 2
42 10 1
42 11 2
42 12 1
42 13 2
42 14 1
42 15 2
42 16 1
42 17 2
42 18 2
42 19 1
42 20 1
42 21 1
42 22 1
42 23 2
42 24 2
42 25 1
42 26 1
42 27 1
42 28 1
42 29 2
42 30 1
42 31 1
42 32 2
42 33 1
42 34 1
42 35 1
42 36 1
42 37 1
42 38 1
42 39 1
42 40 1
42 41 1
43 0 1
43 1 2
43 2 1
43 3 1
43 4 2
43 5 1
43 6 2
43 7 2
43 8 2
43 9 2
43 10 2
43 11 1
43 12 2
43 13 2
43 14 1
43 15 1
43 16 2
43 17 2
43 18 1
43 19 1
43 20 1
43 21 1
43 22 1
43 23 2
43 24 1
43 25 2
43 26 2
43 27 1
43 28 1
43 29 2
43 30 1
43 31 2
43 32 1
43 33 1
43 34 2
43 35 2
43 36 1
43 37 2
43 38 2
43 39 1
43 40 2
43 41 2
43 42 1
44 0 1
44 1 2
44 2 1
44 3 1
44 4 1
44 5 1
44 6 1
44 7 2
44 8 2
44 9 1
44 10 2
44 11 2
44 12 2
44 13 1
44 14 2
44 15 2
44 16 2
44 17 1
44 18 2
44 19 1
44 20 2
44 21 2
44 22 2
44 23 1
44 24 1
44 25 1
44 26 1
44 27 1
44 28 2
44 29 2
44 30 2
44 31 1
44 32 2
44 33 2
44 34 1
44 35 1
44 36 2
44 37 2
44 38 1
44 39 2
44 40 2
44 41 1
44 42 2
44 43 1
45 0 2
45 1 2
45 2 1
45 3 1
45 4 1
45 5 1
45 6 2
45 7 2
45 8 1
45 9 2
45 10 1
45 11 1
45 12 2
45 13 2
45 14 1
45 15 2
45 16 2
45 17 1
45 18 1
45 19 1
45 20 1
45 21 1
45 22 1
45 23 1
45 24 2
45 25 2
45 26 2
45 27 1
45 28 2
45 29 2
45 30 1
45 31 1
45 32 1
45 33 1
45 34 1
45 35 1
45 36 1
45 37 1
45 38 2
45 39 2
45 40 1
45 41 1
45 42 1
45 43 2
45 44 2
46 0 1
46 1 2
46 2 2
46 3 2
46 4 1
46 5 1
46 6 1
46 7 2
46 8 1
46 9 2
46 10 2
46 11 2
46 12 2
46 13 1
46 14 2
46 15 2
46 16 1
46 17 1
46 18 2
46 19 1
46 20 2
46 21 2
46 22 2
46 23 2
46 24 2
46 25 2
46 26 2
46 27 2
46 28 1
46 29 1
46 30 2
46 31 1
46 32 2
46 33 2
46 34 1
46 35 1
46 36 1
46 37 2
46 38 1
46 39 2
46 40 2
46 41 1
46 42 1
46 43 1
46 44 2
46 45 1
47 0 2
47 1 2
47 2 2
47 3 1
47 4 2
47 5 2
47 6 1
47 7 1
47 8 1
47 9 1
47 10 2
47 11 2
47 12 2
47 13 1
47 14 2
47 15 2
47 16 1
47 17 2
47 18 2
47 19 1
47 20 1
47 21 2
47 22 1
47 23 1
47 24 1
47 25 2
47 26 1
47 27 2
47 28 2
47 29 2
47 30 1
47 31 2
47 32 2
47 33 2
47 34 2
47 35 1
47 36 2
47 37 1
47 38 2
47 39 2
47 40 1
47 41 2
47 42 2
47 43 2
47 44 2
47 45 2
47 46 1
48 0 2
48 1 1
48 2 2
48 3 2
48 4 1
48 5 1
48 6 2
48 7 1
48 8 2
48 9 1
48 10 2
48 11 2
48 12 1
48 13 1
48 14 2
48 15 2
48 16 1
48 17 2
48 18 2
48 19 1
48 20 2
48 21 1
48 22 2
48 23 2
48 24 1
48 25 1
48 26 1
48 27 1
48 28 1
48 29 2
48 30 1
48 31 2
48 32 2
48 33 2
48 34 2
48 35 2
48 36 2
48 37 1
48 38 1
48 39 2
48 40 1
48 41 2
48 42 1
48 43 2
48 44 1
48 45 1
48 46 1
48 47 2
49 0 2
49 1 1
49 2 2
49 3 2
49 4 1
49 5 2
49 6 2
49 7 1
49 8 2
49 9 1
49 10 1
49 11 2
49 12 2
49 13 2
49 14 2
49 15 2
49 16 1
49 17 2
49 18 1
49 19 2
49 20 1
49 21 1
49 22 2
49 23 2
49 24 2
49 25 1
49 26 1
49 27 2
49 28 2
49 29 1
49 30 1
49 31 2
49 32 2
49 33 1
49 34 2
49 35 1
49 36 2
49 37 2
49 38 2
49 39 2
49 40 1
49 41 2
49 42 1
49 43 2
49 44 1
49 45 1
49 46 1
49 47 2
49 48 2
50 0 2
50 1 1
50 2 2
50 3 1
50 4 1
50 5 1
50 6 2
50 7 2
50 8 1
50 9 1
50 10 1
50 11 2
50 12 1
50 13 2
50 14 1
50 15 1
50 16 2
50 17 2
50 18 1
50 19 2
50 20 2
50 21 1
50 22 2
50 23 2
50 24 2
50 25 1
50 26 1
50 27 2
50 28 1
50 29 1
50 30 2
50 31 2
50 32 2
50 33 2
50 34 1
50 35 2
50 36 2
50 37 1
50 38 2
50 39 2
50 40 1
50 41 1
50 42 2
50 43 2
50 44 2
50 45 2
50 46 1
50 47 2
50 48 1
50 49 2
51 0 1
51 1 1
51 2 1
51 3 2
51 4 1
51 5 1
51 6 2
51 7 1
51 8 2
51 9 1
51 10 1
51 11 1
51 12 2
51 13 2
51 14 2
51 15 1
51 16 1
51 17 1
51 18 2
51 19 1
51 20 2
51 21 1
51 22 2
51 23 1
51 24 1
51 25 2
51 26 1
51 27 2
51 28 1
51 29 1
51 30 2
51 31 2
51 32 1
51 33 2
51 34 2
51 35 2
51 36 2
51 37 1
51 38 1
51 39 2
51 40 1
51 41 1
51 42 2
51 43 1
51 44 1
51 45 2
51 46 1
51 47 2
51 48 2
51 49 1
51 50 1
52 0 1
52 1 2
52 2 2
52 3 2
52 4 2
52 5 1
52 6 2
52 7 1
52 8 2
52 9 1
52 10 2
52 11 1
52 12 2
52 13 1
52 14 2
52 15 2
52 16 1
52 17 1
52 18 2
52 19 2
52 20 2
52 21 1
52 22 1
52 23 2
52 24 1
52 25 2
52 26 2
52 27 2
52 28 1
52 29 1
52 30 2
52 31 1
52 32 1
52 33 2
52 34 1
52 35 1
52 36 1
52 37 2
52 38 1
52 39 1
52 40 1
52 41 1
52 42 1
52 43 2
52 44 2
52 45 1
52 46 2
52 47 1
52 48 2
52 49 1
52 50 1
52 51 2
53 0 2
53 1 2
53 2 2
53 3 1
53 4 1
53 5 2
53 6 1
53 7 2
53 8 2
53 9 2
53 10 1
53 11 2
53 12 1
53 13 2
53 14 2
53 15 1
53 16 2
53 17 1
53 18 2
53 19 2
53 20 1
53 21 2
53 22 1
53 23 2
53 24 2
53 25 1
53 26 1
53 27 2
53 28 2
53 29 2
53 30 1
53 31 1
53 32 1
53 33 2
53 34 2
53 35 2
53 36 1
53 37 1
53 38 2
53 39 1
53 40 2
53 41 2
53 42 1
53 43 2
53 44 1
53 45 2
53 46 2
53 47 1
53 48 1
53 49 2
53 50 1
53 51 2
53 52 1
54 0 1
54 1 1
54 2 1
54 3 1
54 4 1
54 5 1
54 6 1
54 7 2
54 8 1
54 9 2
54 10 1
54 11 1
54 12 2
54 13 2
54 14 2
54 15 2
54 16 1
54 17 2
54 18 2
54 19 2
54 20 1
54 21 1
54 22 1
54 23 1
54 24 2
54 25 2
54 26 2
54 27 2
54 28 2
54 29 1
54 30 1
54 31 2
54 32 1
54 33 1
54 34 2
54 35 1
54 36 2
54 37 1
54 38 2
54 39 2
54 40 2
54 41 2
54 42 1
54 43 2
54 44 2
54 45 2
54 46 1
54 47 1
54 48 2
54 49 1
54 50 2
54 51 1
54 52 2
54 53 2
55 0 2
55 1 2
55 2 1
55 3 2
55 4 2
55 5 1
55 6 1
55 7 1
55 8 2
55 9 2
55 10 2
55 11 2
55 12 2
55 13 1
55 14 1
55 15 2
55 16 1
55 17 2
55 18 1
55 19 1
55 20 1
55 21 2
55 22 2
55 23 2
55 24 2
55 25 2
55 26 2
55 27 1
55 28 1
55 29 2
55 30 2
55 31 1
55 32 2
55 33 2
55 34 2
55 35 1
55 36 2
55 37 1
55 38 1
55 39 1
55 40 2
55 41 1
55 42 2
55 43 2
55 44 2
55 45 1
55 46 2
55 47 2
55 48 2
55 49 2
55 50 1
55 51 2
55 52 2
55 53 1
55 54 1
56 0 1
56 1 1
56 2 1
56 3 1
56 4 1
56 5 2
56 6 2
56 7 1
56 8 1
56 9 2
56 10 1
56 11 1
56 12 1
56 13 1
56 14 1
56 15 1
56 16 2
56 17 1
56 18 2
56 19 2
56 20 2
56 21 2
56 22 2
56 23 2
56 24 2
56 25 1
56 26 1
56 27 2
56 28 2
56 29 1
56 30 1
56 31 1
56 32 2
56 33 2
56 34 1
56 35 2
56 36 1
56 37 1
56 38 1
56 39 1
56 40 1
56 41 1
56 42 1
56 43 2
56 44 1
56 45 2
56 46 1
56 47 2
56 48 2
56 49 1
56 50 2
56 51 1
56 52 2
56 53 1
56 54 1
56 55 2
57 0 2
57 1 2
57 2 1
57 3 1
57 4 2
57 5 2
57 6 2
57 7 1
57 8 2
57 9 2
57 10 2
57 11 1
57 12 2
57 13 2
57 14 2
57 15 1
57 16 2
57 17 2
57 18 2
57 19 2
57 20 2
57 21 1
57 22 1
57 23 1
57 24 1
57 25 2
57 26 1
57 27 2
57 28 1
57 29 2
57 30 2
57 31 1
57 32 2
57 33 1
57 34 1
57 35 2
57 36 2
57 37 1
57 38 1
57 39 2
57 40 2
57 41 2
57 42 1
57 43 1
57 44 1
57 45 2
57 46 1
57 47 1
57 48 1
57 49 2
57 50 2
57 51 2
57 52 2
57 53 2
57 54 1
57 55 1
57 56 2
58 0 1
58 1 1
58 2 2
58 3 1
58 4 2
58 5 1
58 6 2
58 7 2
58 8 1
58 9 2
58 10 2
58 11 1
58 12 1
58 13 2
58 14 1
58 15 1
58 16 2
58 17 1
58 18 1
58 19 2
58 20 2
58 21 1
58 22 2
58 23 2
58 24 2
58 25 1
58 26 1
58 27 2
58 28 2
58 29 1
58 30 1
58 31 1
58 32 1
58 33 2
58 34 2
58 35 1
58 36 1
58 37 2
58 38 1
58 39 2
58 40 1
58 41 1
58 42 1
58 43 2
58 44 1
58 45 2
58 46 1
58 47 2
58 48 1
58 49 2
58 50 1
58 51 2
58 52 1
58 53 2
58 54 1
58 55 1
58 56 1
58 57 1
59 0 2
59 1 2
59 2 2
59 3 2
59 4 1
59 5 1
59 6 1
59 7 1
59 8 1
59 9 1
59 10 1
59 11 1
59 12 1
59 13 2
59 14 1
59 15 1
59 16 1
59 17 2
59 18 1
59 19 1
59 20 2
59 21 1
59 22 2
59 23 1
59 24 1
59 25 1
59 26 2
59 27 2
59 28 1
59 29 2
59 30 1
59 31 2
59 32 1
59 33 2
59 34 2
59 35 2
59 36 1
59 37 1
59 38 1
59 39 2
59 40 1
59 41 1
59 42 2
59 43 1
59 44 2
59 45 2
59 46 1
59 47 2
59 48 2
59 49 2
59 50 2
59 51 1
59 52 1
59 53 1
59 54 1
59 55 2
59 56 2
59 57 1
59 58 2
